CPLEX/src/cplex_evrptwspd/small_instances/Cplex5er/c101C5.dat
Depot_0 = {0};
Stations = {1,2,3,4,5,6,7,8,9,};
Customers = {10,11,12,13,14,};
Depot_N1 = {15};

v = 1.0;
C = 200.0;
Q = 77.75;
g = 3.47;
h = 1.0;

XCoord = #[
0	:	40.0
1	:	40.0
2	:	40.0
3	:	40.0
4	:	31.0
5	:	31.0
6	:	31.0
7	:	39.0
8	:	39.0
9	:	39.0
10	:	20.0
11	:	25.0
12	:	55.0
13	:	68.0
14	:	48.0
15	:	40.0
]#;

YCoord = #[
0	:	50.0
1	:	50.0
2	:	50.0
3	:	50.0
4	:	84.0
5	:	84.0
6	:	84.0
7	:	26.0
8	:	26.0
9	:	26.0
10	:	55.0
11	:	85.0
12	:	85.0
13	:	60.0
14	:	30.0
15	:	50.0
]#;

q = #[
0	:	0.0
1	:	0.0
2	:	0.0
3	:	0.0
4	:	0.0
5	:	0.0
6	:	0.0
7	:	0.0
8	:	0.0
9	:	0.0
10	:	3.0
11	:	5.0
12	:	12.0
13	:	26.0
14	:	6.0
15	:	0.0
]#;

p = #[
0	:	0.0
1	:	0.0
2	:	0.0
3	:	0.0
4	:	0.0
5	:	0.0
6	:	0.0
7	:	0.0
8	:	0.0
9	:	0.0
10	:	7.0
11	:	15.0
12	:	8.0
13	:	4.0
14	:	4.0
15	:	0.0
]#;

e = #[
0	:	0.0
1	:	0.0
2	:	0.0
3	:	0.0
4	:	0.0
5	:	0.0
6	:	0.0
7	:	0.0
8	:	0.0
9	:	0.0
10	:	355.0
11	:	176.0
12	:	744.0
13	:	737.0
14	:	263.0
15	:	0.0
]#;

l = #[
0	:	1236.0
1	:	1236.0
2	:	1236.0
3	:	1236.0
4	:	1236.0
5	:	1236.0
6	:	1236.0
7	:	1236.0
8	:	1236.0
9	:	1236.0
10	:	407.0
11	:	228.0
12	:	798.0
13	:	809.0
14	:	325.0
15	:	1236.0
]#;

s = #[
0	:	0.0
1	:	0.0
2	:	0.0
3	:	0.0
4	:	0.0
5	:	0.0
6	:	0.0
7	:	0.0
8	:	0.0
9	:	0.0
10	:	90.0
11	:	90.0
12	:	90.0
13	:	90.0
14	:	90.0
15	:	0.0
]#;
