EVRP-TW-SPD dataset generation/evrptwspd_instances/small_instances/Cplex5er/c101c5.txt
StringID	Type	x	y	Delivery	Pickup	ReadyTime	DueDate	ServiceTime
D0	d	40.0	50.0	0.0	0.0	0.0	1236.0	0.0
S0	f	40.0	50.0	0.0	0.0	0.0	1236.0	0.0
S5	f	31.0	84.0	0.0	0.0	0.0	1236.0	0.0
S15	f	39.0	26.0	0.0	0.0	0.0	1236.0	0.0
C30	c	20.0	55.0	3.6363636363636367	6.363636363636363	355.0	407.0	90.0
C12	c	25.0	85.0	5.882352941176471	14.117647058823529	176.0	228.0	90.0
C100	c	55.0	85.0	12.941176470588236	7.0588235294117645	744.0	798.0	90.0
C85	c	68.0	60.0	26.470588235294116	3.529411764705884	737.0	809.0	90.0
C64	c	48.0	30.0	6.25	3.75	263.0	325.0	90.0

Q Vehicle fuel tank capacity /77.75/
C Vehicle load capacity /200.0/
r fuel consumption rate /1.0/
g inverse refueling rate /3.47/
v average Velocity /1.0/
